
Log started (V12.6.3.0) Thu Jan 25 20:43:02 2018

New value for default parallel thread count: 1

Problem '/tmp/tmpaTlhnI.pyomo.lp' read.
Read time = 0.00 sec. (0.01 ticks)

Problem name         : /tmp/tmpaTlhnI.pyomo.lp
Objective sense      : Minimize
Variables            :     146  [Nneg: 136,  Binary: 9,  General Integer: 1]
Objective nonzeros   :       1
Linear constraints   :      41  [Less: 9,  Equal: 32]
  Nonzeros           :     423
  RHS nonzeros       :      13

Variables            : Min LB: 0.000000         Max UB: 1.000000       
Objective nonzeros   : Min   : 1.000000         Max   : 1.000000       
Linear constraints   :
  Nonzeros           : Min   : 1.000000         Max   : 2651.900       
  RHS nonzeros       : Min   : 1.000000         Max   : 3200.000       
Tried aggregator 2 times.
MIP Presolve eliminated 27 rows and 128 columns.
MIP Presolve added 1 rows and 1 columns.
Aggregator did 2 substitutions.
Reduced MIP has 13 rows, 17 columns, and 45 nonzeros.
Reduced MIP has 3 binaries, 1 generals, 0 SOSs, and 0 indicators.
Presolve time = 0.00 sec. (0.12 ticks)
Found incumbent of value 7.000000 after 0.00 sec. (0.18 ticks)
Probing fixed 0 vars, tightened 1 bounds.
Probing time = 0.00 sec. (0.00 ticks)
Tried aggregator 1 time.
Reduced MIP has 13 rows, 17 columns, and 45 nonzeros.
Reduced MIP has 3 binaries, 1 generals, 0 SOSs, and 0 indicators.
Presolve time = 0.00 sec. (0.02 ticks)
Probing time = 0.00 sec. (0.00 ticks)
Clique table members: 1.
MIP emphasis: balance optimality and feasibility.
MIP search method: dynamic search.
Parallel mode: none, using 1 thread.
Root relaxation solution time = 0.00 sec. (0.02 ticks)

        Nodes                                         Cuts/
   Node  Left     Objective  IInf  Best Integer    Best Bound    ItCnt     Gap

*     0+    0                            7.0000        5.0000            28.57%
*     0     0      integral     0        5.0000        5.0000        1    0.00%
Elapsed time = 0.00 sec. (0.25 ticks, tree = 0.00 MB, solutions = 2)

Root node processing (before b&c):
  Real time             =    0.00 sec. (0.26 ticks)
Sequential b&c:
  Real time             =    0.00 sec. (0.00 ticks)
                          ------------
Total (root+branch&cut) =    0.00 sec. (0.26 ticks)

Solution pool: 2 solutions saved.

MIP - Integer optimal solution:  Objective =  5.0000000000e+00
Solution time =    0.00 sec.  Iterations = 1  Nodes = 0
Deterministic time = 0.26 ticks  (141.65 ticks/sec)


Incumbent solution written to file '/tmp/tmpdHeDY4.cplex.sol'.
